************************************************************************
file with basedata            : mm28_.bas
initial value random generator: 1298263090
************************************************************************
projects                      :  1
jobs (incl. supersource/sink ):  12
horizon                       :  91
RESOURCES
  - renewable                 :  2   R
  - nonrenewable              :  2   N
  - doubly constrained        :  0   D
************************************************************************
PROJECT INFORMATION:
pronr.  #jobs rel.date duedate tardcost  MPM-Time
    1     10      0       18        4       18
************************************************************************
PRECEDENCE RELATIONS:
jobnr.    #modes  #successors   successors
   0        1          3           1   2   3
   1        3          3           4   5  10
   2        3          1          10
   3        3          3           5   7  10
   4        3          1           6
   5        3          1           8
   6        3          1           7
   7        3          2           8   9
   8        3          1          11
   9        3          1          11
  10        3          1          11
  11        1          0        
************************************************************************
REQUESTS/DURATIONS:
jobnr. mode duration  R 1  R 2  R 3  R 4  E(W 1)  E(W 2)
------------------------------------------------------------------------
  0      1     0       0    0    0    0     0       0
  1      1     1       5    0    8    0     5       8
  2      1     1       0    3    6    0     3       6
  3      1     1       5    0    8    0     5       8
  4      1     3       4    0    0    2    12       6
  5      1     7       4    0    0    5    28      35
  6      1     5       9    0    7    0    45      35
  7      1     2       0    4    8    0     8      16
  8      1     7       0    8    0    4    56      28
  9      1     6       0    5    0    6    30      36
 10      1     1       0   10    0    9    10       9
 11      1     0       0    0    0    0     0       0
************************************************************************
RESOURCEAVAILABILITIES:
  R 1  R 2
   45   110
************************************************************************
RESOURCE LIMITS:
jobnr.  l(R 1)  u(R 1)  l(R 2)  u(R 2)
------------------------------------------------------------------------
  0        0       0       0       0
  1        3       5       4       8
  2        2       3       3       6
  3        3       5       4       8
  4        2       4       1       2
  5        2       4       3       5
  6        5       9       4       7
  7        2       4       4       8
  8        4       8       2       4
  9        3       5       3       6
 10        5      10       5       9
 11        0       0       0       0
************************************************************************
SCENARIOS:
------------------------------------------------------------------------
RESOURCE k = 1
s = 1: (0, 5, 2, 5, 18, 30, 34, 8, 54, 27, 9, 0)
s = 2: (0, 7, 4, 5, 11, 20, 25, 5, 58, 28, 8, 0)
s = 3: (0, 7, 4, 6, 11, 17, 34, 12, 91, 22, 10, 0)
s = 4: (0, 5, 4, 5, 11, 27, 64, 9, 51, 18, 10, 0)
s = 5: (0, 7, 2, 5, 8, 30, 33, 9, 48, 36, 12, 0)
s = 6: (0, 4, 5, 6, 18, 19, 62, 9, 40, 38, 7, 0)
s = 7: (0, 7, 2, 6, 16, 29, 64, 12, 35, 17, 8, 0)
s = 8: (0, 5, 3, 4, 10, 26, 61, 8, 62, 32, 6, 0)
s = 9: (0, 4, 3, 5, 8, 22, 39, 7, 69, 29, 13, 0)
s = 10: (0, 8, 4, 6, 7, 31, 39, 6, 60, 19, 9, 0)
s = 11: (0, 4, 5, 6, 16, 30, 49, 9, 75, 30, 9, 0)
s = 12: (0, 6, 3, 5, 12, 22, 37, 6, 59, 34, 9, 0)
s = 13: (0, 9, 3, 7, 13, 26, 46, 8, 51, 31, 10, 0)
s = 14: (0, 7, 3, 4, 11, 29, 64, 7, 47, 17, 10, 0)
s = 15: (0, 6, 4, 4, 18, 20, 55, 5, 33, 37, 10, 0)
s = 16: (0, 5, 3, 6, 11, 27, 50, 9, 91, 22, 9, 0)
s = 17: (0, 5, 3, 5, 14, 27, 60, 7, 43, 21, 8, 0)
s = 18: (0, 5, 4, 4, 10, 28, 28, 9, 87, 34, 7, 0)
s = 19: (0, 9, 2, 4, 17, 18, 66, 5, 41, 19, 7, 0)
s = 20: (0, 8, 3, 3, 8, 22, 56, 6, 55, 30, 9, 0)
s = 21: (0, 5, 3, 6, 14, 36, 37, 11, 59, 26, 9, 0)
s = 22: (0, 6, 3, 4, 9, 40, 36, 9, 64, 37, 7, 0)
s = 23: (0, 7, 4, 6, 9, 26, 49, 9, 62, 30, 8, 0)
s = 24: (0, 6, 4, 8, 15, 25, 33, 7, 44, 48, 9, 0)
s = 25: (0, 5, 4, 4, 12, 21, 30, 8, 54, 45, 9, 0)
s = 26: (0, 3, 3, 4, 13, 23, 33, 7, 59, 22, 12, 0)
s = 27: (0, 4, 2, 6, 13, 27, 49, 7, 41, 28, 12, 0)
s = 28: (0, 7, 3, 5, 12, 50, 38, 13, 59, 30, 11, 0)
s = 29: (0, 7, 3, 5, 18, 36, 42, 7, 37, 36, 16, 0)
s = 30: (0, 5, 3, 4, 9, 30, 44, 8, 51, 46, 13, 0)
s = 31: (0, 7, 4, 4, 9, 38, 43, 8, 56, 28, 10, 0)
s = 32: (0, 4, 4, 6, 14, 22, 38, 7, 40, 19, 15, 0)
s = 33: (0, 5, 5, 4, 13, 16, 46, 6, 46, 24, 15, 0)
s = 34: (0, 8, 4, 5, 12, 20, 45, 6, 83, 41, 12, 0)
s = 35: (0, 4, 4, 4, 11, 32, 53, 5, 73, 21, 9, 0)
s = 36: (0, 3, 3, 9, 9, 41, 25, 11, 46, 29, 7, 0)
s = 37: (0, 3, 4, 4, 14, 47, 43, 6, 38, 26, 11, 0)
s = 38: (0, 4, 3, 4, 15, 33, 67, 7, 48, 31, 14, 0)
s = 39: (0, 7, 6, 5, 13, 35, 59, 8, 49, 23, 10, 0)
s = 40: (0, 5, 4, 5, 11, 26, 61, 9, 87, 40, 7, 0)
s = 41: (0, 4, 3, 5, 13, 32, 31, 6, 54, 40, 11, 0)
s = 42: (0, 4, 3, 4, 13, 29, 65, 10, 35, 35, 13, 0)
s = 43: (0, 4, 3, 5, 11, 37, 32, 8, 61, 28, 13, 0)
s = 44: (0, 6, 4, 7, 8, 23, 64, 8, 76, 18, 11, 0)
s = 45: (0, 4, 4, 4, 19, 15, 42, 7, 44, 37, 9, 0)
s = 46: (0, 4, 5, 7, 13, 37, 27, 8, 30, 32, 14, 0)
s = 47: (0, 6, 2, 8, 13, 41, 30, 8, 61, 25, 13, 0)
s = 48: (0, 9, 3, 6, 10, 26, 47, 15, 48, 50, 7, 0)
s = 49: (0, 9, 4, 3, 13, 38, 48, 8, 89, 34, 9, 0)
s = 50: (0, 3, 5, 5, 17, 33, 49, 14, 74, 30, 8, 0)
s = 51: (0, 5, 3, 3, 12, 20, 69, 13, 58, 36, 14, 0)
s = 52: (0, 7, 4, 7, 8, 21, 34, 6, 51, 30, 12, 0)
s = 53: (0, 8, 3, 3, 8, 18, 47, 6, 47, 40, 6, 0)
s = 54: (0, 7, 4, 7, 11, 20, 72, 11, 51, 35, 7, 0)
s = 55: (0, 4, 3, 5, 10, 25, 32, 14, 77, 37, 11, 0)
s = 56: (0, 3, 4, 7, 8, 42, 39, 8, 66, 37, 8, 0)
s = 57: (0, 7, 2, 5, 8, 39, 62, 10, 56, 21, 8, 0)
s = 58: (0, 4, 4, 7, 14, 33, 34, 13, 50, 19, 10, 0)
s = 59: (0, 9, 3, 7, 20, 36, 52, 8, 62, 43, 11, 0)
s = 60: (0, 6, 4, 8, 16, 31, 42, 6, 34, 29, 14, 0)
s = 61: (0, 6, 4, 6, 10, 23, 53, 9, 62, 26, 16, 0)
s = 62: (0, 4, 3, 5, 21, 22, 27, 8, 92, 31, 10, 0)
s = 63: (0, 4, 5, 7, 11, 32, 68, 5, 72, 39, 9, 0)
s = 64: (0, 7, 4, 5, 11, 25, 40, 8, 50, 22, 9, 0)
s = 65: (0, 3, 3, 4, 12, 42, 30, 7, 63, 28, 14, 0)
s = 66: (0, 7, 3, 4, 11, 42, 32, 6, 45, 39, 9, 0)
s = 67: (0, 6, 5, 8, 18, 27, 60, 9, 49, 46, 7, 0)
s = 68: (0, 4, 4, 5, 16, 31, 38, 9, 68, 22, 13, 0)
s = 69: (0, 6, 3, 5, 14, 46, 60, 7, 47, 36, 13, 0)
s = 70: (0, 9, 3, 7, 8, 23, 62, 7, 31, 31, 11, 0)
s = 71: (0, 4, 4, 6, 15, 32, 61, 6, 44, 54, 11, 0)
s = 72: (0, 7, 4, 6, 15, 31, 36, 10, 49, 43, 8, 0)
s = 73: (0, 6, 3, 6, 16, 26, 40, 11, 60, 25, 9, 0)
s = 74: (0, 4, 2, 7, 12, 27, 63, 9, 48, 33, 9, 0)
s = 75: (0, 7, 3, 6, 14, 34, 59, 7, 38, 38, 10, 0)
s = 76: (0, 6, 4, 6, 15, 27, 48, 7, 34, 38, 13, 0)
s = 77: (0, 7, 4, 5, 16, 31, 45, 7, 50, 28, 15, 0)
s = 78: (0, 8, 3, 5, 19, 30, 28, 8, 76, 24, 8, 0)
s = 79: (0, 5, 3, 6, 18, 31, 40, 6, 78, 20, 7, 0)
s = 80: (0, 7, 6, 5, 15, 32, 39, 10, 37, 43, 9, 0)
s = 81: (0, 4, 2, 8, 10, 34, 37, 10, 52, 32, 18, 0)
s = 82: (0, 4, 3, 5, 9, 42, 39, 14, 74, 25, 8, 0)
s = 83: (0, 5, 3, 8, 9, 16, 41, 8, 52, 34, 11, 0)
s = 84: (0, 6, 2, 5, 12, 26, 32, 6, 47, 29, 11, 0)
s = 85: (0, 9, 3, 6, 11, 18, 76, 10, 42, 33, 6, 0)
s = 86: (0, 5, 3, 6, 12, 42, 34, 10, 34, 19, 14, 0)
s = 87: (0, 3, 3, 6, 13, 32, 36, 7, 68, 20, 11, 0)
s = 88: (0, 4, 5, 8, 13, 23, 36, 7, 68, 33, 10, 0)
s = 89: (0, 6, 3, 4, 9, 28, 37, 8, 52, 23, 11, 0)
s = 90: (0, 5, 4, 5, 12, 24, 41, 9, 49, 23, 7, 0)
s = 91: (0, 7, 4, 4, 11, 21, 31, 9, 66, 28, 11, 0)
s = 92: (0, 5, 3, 4, 8, 29, 38, 6, 66, 39, 8, 0)
s = 93: (0, 7, 2, 6, 14, 24, 41, 9, 59, 30, 9, 0)
s = 94: (0, 5, 3, 7, 14, 20, 32, 10, 49, 21, 13, 0)
s = 95: (0, 6, 4, 5, 14, 21, 32, 9, 49, 31, 6, 0)
s = 96: (0, 7, 3, 6, 11, 21, 54, 10, 36, 18, 7, 0)
s = 97: (0, 5, 4, 4, 19, 44, 44, 10, 44, 20, 10, 0)
s = 98: (0, 4, 3, 3, 14, 36, 52, 7, 81, 32, 11, 0)
s = 99: (0, 5, 4, 7, 9, 34, 46, 9, 55, 32, 8, 0)
s = 100: (0, 4, 3, 7, 15, 33, 64, 8, 66, 34, 14, 0)
s = 101: (0, 5, 4, 5, 11, 39, 30, 8, 72, 29, 9, 0)
s = 102: (0, 5, 3, 7, 11, 40, 36, 10, 67, 29, 9, 0)
s = 103: (0, 4, 5, 7, 10, 21, 59, 6, 59, 42, 10, 0)
s = 104: (0, 6, 4, 5, 14, 25, 62, 8, 81, 41, 8, 0)
s = 105: (0, 5, 3, 7, 8, 22, 50, 6, 89, 25, 11, 0)
s = 106: (0, 5, 4, 7, 13, 19, 47, 5, 65, 22, 16, 0)
s = 107: (0, 4, 4, 5, 8, 37, 32, 7, 83, 35, 9, 0)
s = 108: (0, 5, 2, 5, 11, 24, 29, 8, 63, 22, 13, 0)
s = 109: (0, 5, 3, 7, 9, 31, 52, 11, 73, 27, 7, 0)
s = 110: (0, 4, 3, 6, 15, 28, 30, 5, 55, 36, 9, 0)
s = 111: (0, 5, 3, 5, 11, 37, 32, 12, 62, 27, 9, 0)
s = 112: (0, 3, 4, 6, 15, 36, 54, 9, 41, 31, 14, 0)
s = 113: (0, 3, 2, 4, 8, 28, 35, 11, 84, 30, 14, 0)
s = 114: (0, 4, 4, 4, 11, 30, 31, 11, 51, 53, 14, 0)
s = 115: (0, 5, 3, 4, 16, 21, 35, 9, 36, 39, 8, 0)
s = 116: (0, 3, 5, 5, 9, 40, 42, 9, 41, 36, 8, 0)
s = 117: (0, 6, 4, 5, 19, 26, 49, 9, 52, 23, 8, 0)
s = 118: (0, 6, 4, 6, 12, 15, 71, 6, 47, 25, 11, 0)
s = 119: (0, 4, 4, 5, 9, 19, 28, 8, 49, 22, 13, 0)
s = 120: (0, 6, 3, 6, 15, 42, 60, 6, 39, 47, 11, 0)
s = 121: (0, 7, 3, 5, 9, 23, 45, 6, 66, 34, 11, 0)
s = 122: (0, 4, 4, 7, 11, 17, 70, 11, 38, 30, 13, 0)
s = 123: (0, 5, 3, 8, 15, 34, 36, 9, 73, 33, 13, 0)
s = 124: (0, 5, 3, 4, 14, 28, 33, 9, 92, 22, 10, 0)
s = 125: (0, 5, 4, 4, 18, 39, 49, 12, 76, 23, 14, 0)
s = 126: (0, 6, 5, 4, 13, 20, 48, 6, 63, 25, 12, 0)
s = 127: (0, 6, 3, 4, 11, 31, 50, 9, 54, 29, 9, 0)
s = 128: (0, 4, 4, 7, 9, 31, 32, 7, 73, 22, 9, 0)
s = 129: (0, 6, 4, 8, 9, 39, 38, 7, 38, 30, 8, 0)
s = 130: (0, 10, 3, 5, 12, 44, 37, 10, 79, 27, 6, 0)
s = 131: (0, 3, 2, 4, 8, 29, 55, 7, 71, 44, 14, 0)
s = 132: (0, 6, 4, 6, 12, 30, 33, 8, 54, 35, 13, 0)
s = 133: (0, 6, 5, 8, 17, 31, 41, 13, 56, 39, 11, 0)
s = 134: (0, 4, 2, 7, 9, 33, 40, 6, 55, 18, 14, 0)
s = 135: (0, 5, 3, 4, 12, 28, 39, 8, 79, 23, 11, 0)
s = 136: (0, 7, 5, 4, 16, 35, 47, 10, 64, 24, 7, 0)
s = 137: (0, 6, 3, 3, 12, 16, 34, 8, 57, 23, 9, 0)
s = 138: (0, 5, 3, 5, 19, 34, 56, 9, 48, 32, 8, 0)
s = 139: (0, 6, 5, 7, 14, 21, 62, 6, 51, 17, 7, 0)
s = 140: (0, 4, 3, 7, 12, 24, 38, 12, 56, 46, 11, 0)
s = 141: (0, 5, 3, 5, 14, 45, 37, 8, 80, 31, 9, 0)
s = 142: (0, 9, 3, 5, 10, 37, 48, 5, 44, 31, 13, 0)
s = 143: (0, 7, 3, 6, 13, 36, 36, 7, 110, 40, 6, 0)
s = 144: (0, 4, 3, 7, 13, 40, 30, 12, 83, 30, 8, 0)
s = 145: (0, 6, 3, 8, 12, 26, 47, 9, 49, 23, 12, 0)
s = 146: (0, 6, 4, 7, 9, 33, 43, 9, 66, 26, 9, 0)
s = 147: (0, 6, 4, 4, 10, 24, 82, 9, 42, 28, 17, 0)
s = 148: (0, 4, 3, 3, 9, 24, 40, 12, 36, 27, 13, 0)
s = 149: (0, 4, 5, 6, 8, 27, 61, 13, 43, 27, 10, 0)
s = 150: (0, 5, 4, 6, 23, 25, 30, 11, 61, 28, 10, 0)
s = 151: (0, 4, 4, 3, 14, 31, 47, 13, 70, 33, 11, 0)
s = 152: (0, 5, 4, 6, 16, 22, 72, 6, 58, 22, 9, 0)
s = 153: (0, 5, 3, 7, 11, 29, 44, 8, 53, 39, 12, 0)
s = 154: (0, 5, 4, 4, 11, 22, 39, 10, 36, 31, 6, 0)
s = 155: (0, 4, 3, 3, 19, 33, 46, 5, 60, 33, 6, 0)
s = 156: (0, 8, 2, 3, 9, 24, 56, 8, 55, 21, 11, 0)
s = 157: (0, 4, 4, 6, 11, 34, 30, 8, 61, 21, 12, 0)
s = 158: (0, 7, 5, 4, 13, 26, 42, 8, 41, 21, 7, 0)
s = 159: (0, 6, 3, 4, 15, 19, 54, 13, 49, 20, 10, 0)
s = 160: (0, 5, 3, 6, 8, 22, 35, 12, 79, 32, 10, 0)
s = 161: (0, 6, 2, 6, 17, 16, 61, 12, 34, 46, 13, 0)
s = 162: (0, 4, 3, 5, 9, 30, 65, 8, 59, 20, 12, 0)
s = 163: (0, 6, 5, 5, 22, 34, 31, 5, 84, 38, 10, 0)
s = 164: (0, 4, 3, 7, 12, 25, 43, 6, 44, 45, 8, 0)
s = 165: (0, 5, 6, 3, 10, 18, 39, 8, 70, 37, 12, 0)
s = 166: (0, 5, 4, 9, 13, 25, 68, 8, 54, 26, 10, 0)
s = 167: (0, 4, 5, 3, 12, 31, 65, 9, 38, 28, 11, 0)
s = 168: (0, 5, 3, 4, 10, 28, 33, 11, 61, 31, 11, 0)
s = 169: (0, 4, 3, 4, 18, 37, 52, 5, 63, 26, 7, 0)
s = 170: (0, 4, 3, 7, 12, 30, 72, 9, 56, 25, 11, 0)
s = 171: (0, 5, 3, 5, 13, 35, 34, 9, 45, 50, 18, 0)
s = 172: (0, 5, 2, 6, 15, 33, 48, 6, 51, 25, 13, 0)
s = 173: (0, 5, 2, 4, 11, 19, 42, 6, 53, 41, 8, 0)
s = 174: (0, 6, 2, 7, 18, 43, 64, 8, 49, 32, 18, 0)
s = 175: (0, 4, 4, 8, 18, 38, 47, 5, 83, 30, 13, 0)
s = 176: (0, 7, 4, 8, 15, 50, 53, 5, 77, 19, 6, 0)
s = 177: (0, 5, 4, 6, 14, 22, 39, 9, 40, 31, 9, 0)
s = 178: (0, 6, 3, 7, 11, 24, 29, 6, 37, 23, 8, 0)
s = 179: (0, 6, 3, 6, 13, 16, 65, 9, 34, 33, 15, 0)
s = 180: (0, 5, 4, 5, 15, 29, 67, 10, 76, 30, 12, 0)
s = 181: (0, 6, 3, 4, 18, 21, 61, 9, 63, 23, 12, 0)
s = 182: (0, 4, 2, 3, 11, 34, 50, 7, 102, 26, 9, 0)
s = 183: (0, 4, 3, 8, 13, 22, 34, 14, 53, 32, 6, 0)
s = 184: (0, 5, 4, 7, 13, 26, 62, 9, 79, 23, 7, 0)
s = 185: (0, 8, 3, 4, 12, 28, 61, 8, 52, 17, 10, 0)
s = 186: (0, 7, 3, 4, 11, 19, 67, 6, 79, 30, 8, 0)
s = 187: (0, 6, 5, 8, 17, 32, 81, 5, 32, 44, 14, 0)
s = 188: (0, 8, 3, 6, 16, 33, 29, 7, 39, 23, 6, 0)
s = 189: (0, 7, 3, 5, 18, 27, 42, 7, 55, 27, 12, 0)
s = 190: (0, 5, 5, 4, 12, 38, 43, 9, 41, 26, 11, 0)
s = 191: (0, 5, 3, 7, 14, 23, 41, 12, 47, 32, 10, 0)
s = 192: (0, 4, 3, 6, 12, 21, 68, 11, 64, 24, 10, 0)
s = 193: (0, 8, 3, 3, 17, 29, 37, 6, 74, 23, 9, 0)
s = 194: (0, 4, 3, 7, 11, 36, 55, 9, 43, 35, 9, 0)
s = 195: (0, 7, 3, 5, 15, 19, 30, 9, 68, 36, 7, 0)
s = 196: (0, 8, 4, 6, 14, 24, 47, 5, 102, 45, 12, 0)
s = 197: (0, 5, 3, 3, 19, 32, 48, 10, 86, 17, 12, 0)
s = 198: (0, 5, 4, 4, 12, 23, 33, 11, 51, 44, 8, 0)
s = 199: (0, 5, 2, 4, 12, 22, 46, 7, 64, 24, 12, 0)
s = 200: (0, 8, 3, 7, 11, 43, 44, 10, 37, 19, 8, 0)
------------------------------------------------------------------------
RESOURCE k = 2
s = 1: (0, 8, 4, 8, 9, 38, 27, 16, 27, 32, 8, 0)
s = 2: (0, 11, 7, 8, 6, 25, 19, 10, 29, 33, 8, 0)
s = 3: (0, 11, 8, 9, 6, 22, 26, 24, 46, 27, 9, 0)
s = 4: (0, 7, 7, 8, 6, 33, 50, 18, 26, 22, 9, 0)
s = 5: (0, 11, 4, 8, 4, 37, 26, 18, 24, 44, 10, 0)
s = 6: (0, 6, 9, 10, 9, 23, 48, 18, 20, 45, 7, 0)
s = 7: (0, 11, 4, 9, 8, 36, 50, 24, 18, 21, 8, 0)
s = 8: (0, 7, 6, 6, 5, 32, 47, 16, 31, 39, 6, 0)
s = 9: (0, 5, 5, 7, 4, 27, 30, 14, 35, 35, 12, 0)
s = 10: (0, 12, 7, 9, 4, 38, 30, 11, 30, 22, 8, 0)
s = 11: (0, 6, 10, 10, 8, 37, 38, 18, 38, 36, 8, 0)
s = 12: (0, 10, 6, 8, 6, 28, 29, 11, 30, 41, 8, 0)
s = 13: (0, 14, 5, 11, 7, 32, 36, 15, 26, 37, 9, 0)
s = 14: (0, 10, 6, 7, 6, 37, 50, 14, 24, 20, 9, 0)
s = 15: (0, 9, 7, 7, 9, 25, 43, 10, 17, 44, 9, 0)
s = 16: (0, 8, 5, 9, 6, 33, 39, 18, 46, 27, 8, 0)
s = 17: (0, 7, 6, 8, 7, 34, 47, 13, 22, 26, 7, 0)
s = 18: (0, 8, 7, 7, 5, 35, 22, 18, 44, 41, 6, 0)
s = 19: (0, 14, 4, 5, 9, 23, 51, 10, 21, 23, 6, 0)
s = 20: (0, 13, 6, 5, 4, 27, 43, 12, 28, 36, 8, 0)
s = 21: (0, 8, 5, 10, 7, 45, 29, 22, 30, 32, 8, 0)
s = 22: (0, 9, 6, 6, 5, 50, 28, 17, 32, 44, 7, 0)
s = 23: (0, 10, 7, 9, 5, 32, 39, 18, 31, 36, 7, 0)
s = 24: (0, 10, 8, 12, 8, 31, 26, 13, 22, 57, 8, 0)
s = 25: (0, 7, 8, 6, 6, 26, 23, 15, 27, 54, 8, 0)
s = 26: (0, 5, 5, 5, 7, 29, 26, 13, 30, 26, 11, 0)
s = 27: (0, 6, 4, 9, 7, 34, 38, 13, 21, 34, 11, 0)
s = 28: (0, 10, 5, 7, 6, 62, 29, 26, 30, 36, 10, 0)
s = 29: (0, 12, 5, 8, 9, 44, 33, 13, 19, 43, 14, 0)
s = 30: (0, 7, 5, 7, 5, 37, 35, 16, 26, 55, 12, 0)
s = 31: (0, 10, 7, 7, 5, 47, 33, 15, 28, 34, 9, 0)
s = 32: (0, 6, 8, 9, 7, 27, 29, 13, 20, 23, 14, 0)
s = 33: (0, 8, 10, 6, 7, 20, 36, 11, 23, 28, 14, 0)
s = 34: (0, 12, 8, 8, 6, 25, 35, 11, 42, 50, 11, 0)
s = 35: (0, 6, 7, 7, 6, 39, 41, 10, 37, 25, 8, 0)
s = 36: (0, 5, 6, 14, 5, 51, 20, 22, 23, 34, 6, 0)
s = 37: (0, 5, 7, 6, 7, 58, 34, 12, 19, 32, 10, 0)
s = 38: (0, 6, 6, 6, 8, 42, 52, 13, 24, 37, 13, 0)
s = 39: (0, 11, 11, 8, 7, 43, 46, 16, 25, 27, 9, 0)
s = 40: (0, 8, 7, 7, 6, 32, 47, 18, 44, 47, 7, 0)
s = 41: (0, 6, 6, 8, 7, 40, 24, 12, 27, 48, 10, 0)
s = 42: (0, 6, 6, 5, 7, 36, 50, 19, 18, 42, 12, 0)
s = 43: (0, 6, 5, 8, 6, 46, 25, 15, 31, 33, 12, 0)
s = 44: (0, 9, 7, 10, 4, 28, 50, 15, 38, 21, 10, 0)
s = 45: (0, 6, 8, 6, 10, 19, 33, 13, 22, 45, 9, 0)
s = 46: (0, 5, 10, 10, 7, 46, 21, 16, 15, 38, 13, 0)
s = 47: (0, 9, 4, 12, 7, 51, 24, 16, 31, 29, 12, 0)
s = 48: (0, 14, 6, 9, 5, 33, 37, 29, 24, 60, 7, 0)
s = 49: (0, 14, 8, 5, 7, 48, 37, 15, 45, 40, 8, 0)
s = 50: (0, 5, 9, 7, 9, 42, 38, 27, 37, 36, 7, 0)
s = 51: (0, 7, 5, 5, 6, 25, 54, 25, 29, 43, 13, 0)
s = 52: (0, 11, 8, 10, 4, 26, 27, 12, 26, 36, 11, 0)
s = 53: (0, 12, 5, 5, 4, 22, 37, 12, 24, 48, 6, 0)
s = 54: (0, 11, 8, 11, 6, 25, 56, 21, 26, 42, 7, 0)
s = 55: (0, 7, 5, 7, 5, 32, 25, 27, 39, 44, 10, 0)
s = 56: (0, 5, 7, 11, 4, 52, 31, 15, 33, 44, 7, 0)
s = 57: (0, 11, 4, 7, 4, 49, 48, 19, 28, 25, 7, 0)
s = 58: (0, 7, 7, 10, 7, 41, 26, 25, 25, 23, 9, 0)
s = 59: (0, 14, 6, 11, 10, 44, 41, 16, 31, 52, 10, 0)
s = 60: (0, 9, 7, 12, 8, 38, 33, 12, 17, 35, 13, 0)
s = 61: (0, 10, 8, 9, 5, 29, 42, 18, 31, 31, 15, 0)
s = 62: (0, 7, 5, 7, 11, 27, 21, 16, 46, 37, 9, 0)
s = 63: (0, 6, 10, 10, 6, 39, 53, 10, 36, 47, 8, 0)
s = 64: (0, 11, 8, 8, 6, 32, 31, 16, 25, 27, 8, 0)
s = 65: (0, 5, 6, 7, 6, 53, 23, 13, 32, 34, 13, 0)
s = 66: (0, 12, 6, 6, 6, 52, 25, 11, 23, 46, 8, 0)
s = 67: (0, 10, 10, 13, 9, 34, 47, 17, 25, 55, 7, 0)
s = 68: (0, 6, 7, 8, 8, 38, 30, 17, 34, 27, 12, 0)
s = 69: (0, 9, 5, 8, 7, 58, 47, 13, 24, 43, 11, 0)
s = 70: (0, 14, 5, 10, 4, 28, 48, 13, 16, 37, 10, 0)
s = 71: (0, 7, 8, 10, 8, 40, 48, 11, 22, 64, 10, 0)
s = 72: (0, 11, 7, 9, 8, 39, 28, 19, 25, 51, 7, 0)
s = 73: (0, 9, 5, 10, 8, 33, 31, 22, 30, 30, 8, 0)
s = 74: (0, 6, 4, 10, 6, 33, 49, 17, 24, 40, 8, 0)
s = 75: (0, 11, 5, 9, 7, 43, 46, 13, 19, 45, 9, 0)
s = 76: (0, 9, 8, 9, 8, 33, 37, 13, 17, 46, 11, 0)
s = 77: (0, 10, 7, 8, 8, 39, 35, 14, 25, 33, 13, 0)
s = 78: (0, 12, 5, 7, 10, 37, 22, 15, 38, 29, 7, 0)
s = 79: (0, 8, 6, 10, 9, 39, 31, 12, 39, 24, 6, 0)
s = 80: (0, 11, 11, 8, 8, 39, 30, 19, 19, 51, 8, 0)
s = 81: (0, 6, 4, 13, 5, 42, 29, 19, 26, 39, 17, 0)
s = 82: (0, 7, 6, 7, 5, 53, 31, 27, 37, 30, 7, 0)
s = 83: (0, 8, 6, 12, 5, 20, 32, 15, 26, 40, 10, 0)
s = 84: (0, 9, 4, 8, 6, 33, 25, 12, 24, 35, 10, 0)
s = 85: (0, 14, 5, 9, 6, 22, 59, 19, 21, 40, 5, 0)
s = 86: (0, 8, 5, 10, 6, 52, 27, 20, 17, 23, 13, 0)
s = 87: (0, 5, 6, 10, 7, 39, 28, 13, 34, 24, 10, 0)
s = 88: (0, 6, 9, 12, 7, 29, 28, 14, 34, 40, 9, 0)
s = 89: (0, 10, 6, 7, 5, 35, 29, 16, 26, 28, 10, 0)
s = 90: (0, 8, 8, 7, 6, 29, 32, 18, 25, 28, 6, 0)
s = 91: (0, 11, 8, 6, 6, 27, 24, 18, 33, 34, 10, 0)
s = 92: (0, 8, 6, 6, 4, 36, 30, 12, 33, 47, 7, 0)
s = 93: (0, 11, 4, 9, 7, 30, 32, 18, 30, 35, 8, 0)
s = 94: (0, 8, 6, 10, 7, 25, 25, 19, 25, 25, 12, 0)
s = 95: (0, 10, 7, 8, 7, 26, 25, 18, 25, 37, 5, 0)
s = 96: (0, 11, 5, 9, 6, 26, 42, 20, 18, 21, 6, 0)
s = 97: (0, 7, 7, 6, 10, 54, 34, 19, 22, 24, 9, 0)
s = 98: (0, 6, 5, 5, 7, 45, 40, 13, 41, 38, 10, 0)
s = 99: (0, 7, 7, 10, 5, 42, 36, 18, 28, 39, 8, 0)
s = 100: (0, 7, 6, 10, 8, 41, 50, 15, 33, 41, 13, 0)
s = 101: (0, 8, 8, 8, 6, 49, 23, 16, 36, 35, 8, 0)
s = 102: (0, 8, 5, 11, 6, 50, 28, 19, 34, 34, 8, 0)
s = 103: (0, 6, 9, 11, 5, 26, 46, 12, 30, 50, 9, 0)
s = 104: (0, 10, 8, 7, 7, 31, 48, 16, 41, 49, 7, 0)
s = 105: (0, 8, 5, 11, 4, 27, 39, 11, 45, 29, 10, 0)
s = 106: (0, 7, 7, 12, 7, 23, 36, 10, 33, 27, 14, 0)
s = 107: (0, 7, 8, 8, 4, 47, 25, 14, 42, 41, 8, 0)
s = 108: (0, 8, 4, 8, 6, 30, 23, 15, 32, 26, 12, 0)
s = 109: (0, 7, 5, 11, 5, 38, 40, 22, 37, 33, 7, 0)
s = 110: (0, 7, 6, 9, 8, 34, 24, 10, 28, 43, 8, 0)
s = 111: (0, 8, 6, 8, 6, 47, 25, 23, 31, 32, 8, 0)
s = 112: (0, 5, 7, 9, 8, 45, 42, 17, 21, 37, 13, 0)
s = 113: (0, 5, 4, 6, 4, 35, 28, 22, 42, 36, 13, 0)
s = 114: (0, 6, 7, 6, 6, 37, 24, 22, 26, 63, 13, 0)
s = 115: (0, 7, 6, 6, 8, 26, 27, 18, 18, 47, 7, 0)
s = 116: (0, 5, 9, 8, 5, 50, 33, 18, 21, 43, 7, 0)
s = 117: (0, 9, 8, 7, 10, 32, 39, 18, 26, 28, 7, 0)
s = 118: (0, 9, 8, 9, 6, 19, 56, 12, 24, 30, 10, 0)
s = 119: (0, 6, 7, 7, 5, 23, 22, 16, 25, 27, 12, 0)
s = 120: (0, 10, 5, 10, 8, 52, 47, 12, 20, 57, 10, 0)
s = 121: (0, 11, 5, 7, 5, 28, 35, 12, 33, 41, 10, 0)
s = 122: (0, 6, 8, 12, 6, 21, 54, 22, 19, 36, 12, 0)
s = 123: (0, 8, 5, 12, 8, 43, 28, 18, 37, 39, 11, 0)
s = 124: (0, 8, 5, 6, 7, 35, 26, 18, 46, 26, 9, 0)
s = 125: (0, 8, 8, 5, 9, 49, 38, 24, 38, 28, 12, 0)
s = 126: (0, 9, 9, 6, 7, 25, 38, 11, 32, 30, 11, 0)
s = 127: (0, 9, 5, 6, 6, 39, 39, 17, 27, 35, 8, 0)
s = 128: (0, 5, 8, 12, 5, 39, 25, 14, 37, 27, 8, 0)
s = 129: (0, 9, 7, 12, 5, 48, 30, 13, 19, 36, 7, 0)
s = 130: (0, 15, 5, 8, 6, 55, 29, 20, 40, 33, 6, 0)
s = 131: (0, 5, 4, 6, 4, 37, 43, 14, 36, 52, 13, 0)
s = 132: (0, 9, 8, 10, 6, 38, 26, 16, 27, 42, 12, 0)
s = 133: (0, 9, 9, 12, 9, 38, 32, 26, 28, 47, 10, 0)
s = 134: (0, 6, 4, 11, 5, 41, 31, 11, 28, 21, 13, 0)
s = 135: (0, 8, 6, 6, 6, 35, 30, 15, 40, 28, 10, 0)
s = 136: (0, 11, 9, 6, 8, 44, 37, 20, 32, 28, 6, 0)
s = 137: (0, 10, 6, 5, 6, 20, 26, 16, 29, 28, 8, 0)
s = 138: (0, 8, 6, 8, 10, 42, 44, 18, 24, 38, 8, 0)
s = 139: (0, 10, 10, 11, 7, 26, 48, 11, 26, 21, 7, 0)
s = 140: (0, 7, 5, 11, 6, 30, 30, 24, 28, 55, 10, 0)
s = 141: (0, 8, 5, 8, 7, 57, 29, 15, 40, 37, 9, 0)
s = 142: (0, 14, 6, 8, 5, 47, 38, 10, 22, 37, 12, 0)
s = 143: (0, 12, 6, 9, 7, 45, 28, 14, 55, 48, 6, 0)
s = 144: (0, 6, 5, 11, 7, 50, 23, 23, 42, 36, 7, 0)
s = 145: (0, 9, 6, 12, 6, 32, 37, 17, 25, 28, 10, 0)
s = 146: (0, 10, 7, 10, 5, 41, 34, 18, 33, 31, 8, 0)
s = 147: (0, 9, 8, 6, 5, 30, 64, 17, 21, 34, 15, 0)
s = 148: (0, 7, 5, 5, 5, 30, 31, 23, 18, 32, 12, 0)
s = 149: (0, 6, 9, 10, 4, 34, 48, 25, 22, 33, 9, 0)
s = 150: (0, 8, 7, 9, 12, 32, 23, 21, 31, 34, 9, 0)
s = 151: (0, 6, 7, 5, 7, 38, 37, 25, 35, 40, 10, 0)
s = 152: (0, 7, 7, 9, 8, 27, 56, 12, 29, 26, 9, 0)
s = 153: (0, 8, 5, 11, 6, 36, 34, 16, 27, 47, 11, 0)
s = 154: (0, 7, 7, 6, 6, 27, 30, 19, 18, 37, 5, 0)
s = 155: (0, 6, 6, 5, 10, 41, 36, 10, 30, 39, 6, 0)
s = 156: (0, 13, 4, 5, 5, 30, 44, 16, 28, 25, 10, 0)
s = 157: (0, 6, 7, 10, 6, 43, 24, 15, 31, 25, 11, 0)
s = 158: (0, 11, 9, 6, 7, 33, 33, 15, 21, 25, 7, 0)
s = 159: (0, 9, 5, 6, 8, 24, 42, 25, 25, 24, 9, 0)
s = 160: (0, 8, 6, 10, 4, 28, 28, 24, 40, 39, 9, 0)
s = 161: (0, 9, 4, 10, 9, 20, 47, 23, 17, 56, 12, 0)
s = 162: (0, 7, 6, 8, 5, 38, 51, 15, 30, 24, 10, 0)
s = 163: (0, 9, 9, 8, 11, 42, 25, 9, 42, 45, 9, 0)
s = 164: (0, 5, 5, 11, 6, 31, 34, 12, 22, 53, 8, 0)
s = 165: (0, 8, 11, 5, 5, 22, 31, 15, 35, 44, 11, 0)
s = 166: (0, 8, 7, 14, 7, 32, 53, 15, 27, 31, 9, 0)
s = 167: (0, 7, 10, 5, 6, 38, 50, 18, 19, 33, 10, 0)
s = 168: (0, 8, 5, 7, 5, 34, 26, 22, 31, 37, 10, 0)
s = 169: (0, 7, 6, 5, 9, 46, 40, 10, 32, 31, 7, 0)
s = 170: (0, 5, 6, 11, 6, 37, 56, 18, 28, 30, 10, 0)
s = 171: (0, 7, 6, 8, 7, 44, 26, 17, 23, 60, 16, 0)
s = 172: (0, 7, 4, 9, 8, 42, 37, 12, 26, 29, 11, 0)
s = 173: (0, 8, 4, 6, 6, 24, 33, 12, 27, 49, 7, 0)
s = 174: (0, 9, 4, 11, 9, 54, 50, 15, 25, 38, 16, 0)
s = 175: (0, 7, 8, 12, 9, 48, 37, 10, 42, 36, 12, 0)
s = 176: (0, 11, 8, 12, 8, 62, 41, 9, 39, 23, 6, 0)
s = 177: (0, 7, 7, 10, 7, 27, 31, 18, 20, 37, 8, 0)
s = 178: (0, 9, 6, 10, 6, 30, 22, 11, 19, 28, 7, 0)
s = 179: (0, 10, 5, 10, 7, 20, 51, 17, 17, 40, 14, 0)
s = 180: (0, 7, 7, 7, 8, 36, 52, 20, 38, 36, 11, 0)
s = 181: (0, 9, 6, 6, 9, 26, 48, 17, 32, 28, 11, 0)
s = 182: (0, 7, 4, 5, 6, 42, 39, 13, 51, 31, 8, 0)
s = 183: (0, 6, 6, 12, 7, 27, 26, 27, 27, 39, 6, 0)
s = 184: (0, 8, 7, 10, 7, 32, 49, 17, 40, 28, 6, 0)
s = 185: (0, 12, 6, 6, 6, 35, 48, 16, 26, 21, 9, 0)
s = 186: (0, 11, 5, 6, 6, 23, 52, 12, 40, 36, 8, 0)
s = 187: (0, 10, 9, 12, 9, 40, 63, 10, 16, 52, 13, 0)
s = 188: (0, 13, 5, 10, 8, 41, 22, 14, 20, 27, 6, 0)
s = 189: (0, 11, 6, 8, 9, 33, 33, 13, 28, 33, 11, 0)
s = 190: (0, 7, 10, 6, 6, 48, 34, 18, 21, 31, 10, 0)
s = 191: (0, 7, 6, 11, 7, 29, 32, 23, 24, 38, 9, 0)
s = 192: (0, 6, 6, 10, 6, 26, 53, 22, 32, 29, 9, 0)
s = 193: (0, 13, 5, 5, 9, 36, 29, 12, 37, 27, 8, 0)
s = 194: (0, 6, 5, 11, 6, 45, 43, 17, 22, 41, 8, 0)
s = 195: (0, 11, 5, 8, 8, 23, 23, 18, 34, 43, 6, 0)
s = 196: (0, 13, 7, 9, 7, 30, 36, 10, 51, 54, 11, 0)
s = 197: (0, 7, 6, 5, 10, 40, 38, 19, 43, 20, 11, 0)
s = 198: (0, 7, 8, 7, 6, 29, 26, 21, 26, 53, 7, 0)
s = 199: (0, 8, 4, 6, 6, 28, 36, 13, 32, 29, 11, 0)
s = 200: (0, 12, 5, 11, 6, 53, 35, 20, 19, 22, 8, 0)
************************************************************************
ES/LS-VALUES:
jobnr.   ES(i)    LS(i)
------------------------------------------------------------------------
  0        0        0
  1        0       55
  2        0       87
  3        0       62
  4        2       57
  5        2       64
  6        8       63
  7       17       73
  8       20       77
  9       20       80
 10        2       89
 11       33       91
************************************************************************
BIG-M-VALUES:
M1 = 56, M2 = 165
************************************************************************
